results/x-10M/X-n106-k14.vrp_seed-3.out
26362	13461
