results/x-10M/X-n106-k14.vrp_seed-3.vrp.sol
Route #1: 7 75 84 9 12 104 1
Route #2: 78 19 27 37 79 46 66 28
Route #3: 96 45 100 51 76 15 44 5
Route #4: 59 89 30 42 23 3 32 73 35
Route #5: 74 21 85 13 40 31 63 57
Route #6: 22 33
Route #7: 14 58 88 91 36 8 48 67
Route #8: 29 72 34 11 99 49 71
Route #9: 54 77 83 2 17 69 105 64 94 82
Route #10: 53 103 101 93 97 43 87 60
Route #11: 56 20 16 10 41 18 86
Route #12: 62 26 90 24 102 92 52
Route #13: 55 98 4 70 6 81 50 39
Route #14: 68 95 38 65 80 61 47 25
Cost 26362.000000